************************************************************************
file with basedata            : mm6_.bas
initial value random generator: 21996
************************************************************************
projects                      :  1
jobs (incl. supersource/sink ):  12
horizon                       :  83
RESOURCES
  - renewable                 :  2   R
  - nonrenewable              :  2   N
  - doubly constrained        :  0   D
************************************************************************
PROJECT INFORMATION:
pronr.  #jobs rel.date duedate tardcost  MPM-Time
    1     10      0       16        2       16
************************************************************************
PRECEDENCE RELATIONS:
jobnr.    #modes  #successors   successors
   0        1          3           1   2   3
   1        3          1           8
   2        3          3           4   5   7
   3        3          2           6   7
   4        3          1          10
   5        3          1           6
   6        3          3           8   9  10
   7        3          1           9
   8        3          1          11
   9        3          1          11
  10        3          1          11
  11        1          0        
************************************************************************
REQUESTS/DURATIONS:
jobnr. mode duration  R 1  R 2  R 3  R 4  E(W 1)  E(W 2)  E(W 3)
------------------------------------------------------------------------
  0      1     0       0    0    0    0     0       0       0
  1      1     4       9    0    5    9    36      20      36
  2      1     1       3    0    9    1     3       9       2
  3      1     3       0    3    3    6     9       9      18
  4      1     1       0    9   10    6     9      10       6
  5      1     3       2    0    6   10     6      18      30
  6      1     4       0    4    5    3    16      20      12
  7      1     1       0    9    8    7     9       8       7
  8      1     1       5    0    8    9     5       8       9
  9      1     2       3    0    6    5     6      12      10
 10      1     8       6    0    8    7    48      64      56
 11      1     0       0    0    0    0     0       0       0
************************************************************************
RESOURCEAVAILABILITIES:
  R 1  R 2  R 3
   18   59   55
************************************************************************
RESOURCE LIMITS:
jobnr.  l(R 1)  u(R 1)  l(R 2)  u(R 2)  l(R 3)  u(R 3)
------------------------------------------------------------------------
  0        0       0       0       0       0       0
  1        5       9       3       5       5       9
  2        2       3       5       9       1       2
  3        2       3       2       3       3       6
  4        5       9       5      10       3       6
  5        1       2       3       6       5      10
  6        2       4       3       5       2       3
  7        5       9       4       8       4       7
  8        3       5       4       8       5       9
  9        2       3       3       6       3       5
 10        3       6       4       8       4       7
 11        0       0       0       0       0       0
************************************************************************
SCENARIOS:
------------------------------------------------------------------------
RESOURCE k = 1
s = 1: (0, 44, 5, 8, 9, 6, 18, 9, 5, 9, 77, 0)
s = 2: (0, 56, 5, 9, 11, 7, 10, 10, 6, 9, 67, 0)
s = 3: (0, 49, 4, 13, 13, 7, 13, 7, 10, 7, 42, 0)
s = 4: (0, 42, 2, 8, 10, 8, 19, 9, 4, 6, 73, 0)
s = 5: (0, 34, 3, 8, 9, 9, 10, 13, 5, 8, 39, 0)
s = 6: (0, 24, 3, 13, 9, 8, 18, 7, 7, 6, 70, 0)
s = 7: (0, 27, 3, 8, 10, 10, 17, 7, 6, 5, 44, 0)
s = 8: (0, 54, 2, 9, 12, 5, 19, 13, 8, 7, 62, 0)
s = 9: (0, 41, 3, 7, 10, 9, 21, 6, 7, 8, 49, 0)
s = 10: (0, 44, 3, 7, 16, 7, 14, 6, 7, 10, 82, 0)
s = 11: (0, 33, 4, 6, 7, 6, 11, 12, 6, 6, 38, 0)
s = 12: (0, 37, 3, 6, 8, 7, 26, 11, 7, 6, 50, 0)
s = 13: (0, 26, 3, 6, 7, 7, 15, 13, 5, 7, 42, 0)
s = 14: (0, 53, 4, 9, 9, 6, 15, 9, 5, 6, 30, 0)
s = 15: (0, 38, 4, 7, 12, 4, 28, 7, 9, 5, 25, 0)
s = 16: (0, 26, 6, 8, 8, 6, 26, 8, 5, 4, 59, 0)
s = 17: (0, 52, 3, 9, 13, 5, 17, 10, 5, 6, 38, 0)
s = 18: (0, 35, 3, 7, 9, 5, 11, 13, 5, 6, 51, 0)
s = 19: (0, 52, 2, 8, 11, 7, 17, 10, 6, 6, 70, 0)
s = 20: (0, 44, 4, 10, 14, 6, 10, 12, 6, 4, 58, 0)
s = 21: (0, 33, 4, 12, 8, 7, 18, 8, 3, 5, 43, 0)
s = 22: (0, 38, 4, 13, 10, 6, 17, 9, 4, 9, 49, 0)
s = 23: (0, 27, 3, 8, 12, 10, 21, 6, 6, 5, 35, 0)
s = 24: (0, 27, 4, 10, 13, 7, 13, 11, 5, 7, 51, 0)
s = 25: (0, 46, 4, 9, 9, 6, 19, 9, 5, 7, 34, 0)
s = 26: (0, 39, 5, 9, 9, 6, 17, 9, 6, 5, 60, 0)
s = 27: (0, 50, 4, 11, 9, 5, 12, 9, 5, 7, 33, 0)
s = 28: (0, 26, 4, 8, 11, 8, 14, 7, 6, 8, 55, 0)
s = 29: (0, 57, 5, 9, 6, 8, 18, 5, 8, 7, 43, 0)
s = 30: (0, 36, 5, 10, 9, 9, 12, 12, 5, 6, 38, 0)
s = 31: (0, 35, 3, 8, 9, 5, 15, 8, 4, 6, 82, 0)
s = 32: (0, 33, 6, 8, 9, 8, 17, 9, 4, 9, 35, 0)
s = 33: (0, 49, 4, 7, 6, 8, 17, 11, 8, 7, 50, 0)
s = 34: (0, 20, 3, 10, 7, 7, 13, 9, 7, 6, 58, 0)
s = 35: (0, 28, 4, 15, 5, 6, 22, 10, 4, 11, 40, 0)
s = 36: (0, 40, 5, 10, 10, 10, 13, 11, 6, 5, 58, 0)
s = 37: (0, 27, 3, 9, 12, 5, 16, 10, 8, 6, 29, 0)
s = 38: (0, 37, 3, 12, 8, 7, 18, 9, 5, 5, 76, 0)
s = 39: (0, 29, 3, 6, 6, 7, 12, 6, 8, 5, 63, 0)
s = 40: (0, 25, 4, 9, 9, 7, 14, 15, 6, 5, 52, 0)
s = 41: (0, 21, 4, 13, 13, 7, 12, 7, 5, 4, 31, 0)
s = 42: (0, 40, 3, 11, 7, 6, 14, 10, 4, 8, 50, 0)
s = 43: (0, 27, 4, 6, 13, 8, 22, 8, 6, 5, 61, 0)
s = 44: (0, 26, 4, 12, 9, 5, 16, 11, 5, 10, 25, 0)
s = 45: (0, 38, 4, 12, 8, 7, 12, 11, 6, 10, 51, 0)
s = 46: (0, 33, 3, 7, 9, 6, 19, 7, 4, 4, 35, 0)
s = 47: (0, 26, 3, 6, 12, 8, 11, 12, 7, 6, 32, 0)
s = 48: (0, 42, 2, 11, 7, 6, 14, 6, 8, 10, 38, 0)
s = 49: (0, 40, 3, 7, 11, 5, 18, 11, 5, 6, 56, 0)
s = 50: (0, 26, 4, 10, 8, 6, 24, 14, 6, 7, 49, 0)
s = 51: (0, 34, 3, 7, 11, 8, 19, 9, 6, 8, 58, 0)
s = 52: (0, 29, 4, 11, 13, 4, 9, 11, 8, 8, 47, 0)
s = 53: (0, 46, 3, 12, 8, 10, 14, 10, 3, 6, 70, 0)
s = 54: (0, 29, 3, 10, 8, 6, 10, 14, 4, 8, 55, 0)
s = 55: (0, 59, 3, 13, 8, 4, 24, 6, 6, 5, 61, 0)
s = 56: (0, 35, 3, 10, 9, 4, 23, 8, 7, 4, 27, 0)
s = 57: (0, 48, 4, 9, 9, 6, 15, 14, 5, 6, 42, 0)
s = 58: (0, 26, 3, 13, 12, 5, 9, 12, 5, 8, 78, 0)
s = 59: (0, 25, 4, 13, 12, 5, 18, 8, 8, 7, 43, 0)
s = 60: (0, 43, 4, 9, 9, 6, 15, 8, 5, 5, 51, 0)
s = 61: (0, 50, 3, 7, 8, 7, 11, 8, 6, 5, 37, 0)
s = 62: (0, 54, 3, 6, 7, 5, 20, 12, 4, 5, 55, 0)
s = 63: (0, 34, 3, 7, 8, 9, 11, 14, 4, 7, 75, 0)
s = 64: (0, 54, 5, 7, 9, 4, 16, 12, 8, 9, 47, 0)
s = 65: (0, 41, 4, 8, 10, 10, 17, 6, 5, 5, 30, 0)
s = 66: (0, 23, 2, 9, 8, 10, 11, 6, 5, 6, 33, 0)
s = 67: (0, 33, 3, 11, 9, 6, 17, 9, 5, 10, 63, 0)
s = 68: (0, 52, 2, 9, 13, 10, 14, 7, 5, 9, 48, 0)
s = 69: (0, 44, 4, 9, 6, 8, 20, 11, 4, 6, 36, 0)
s = 70: (0, 60, 6, 5, 6, 6, 14, 8, 3, 5, 57, 0)
s = 71: (0, 48, 3, 7, 7, 7, 16, 10, 4, 8, 39, 0)
s = 72: (0, 25, 4, 9, 13, 8, 17, 8, 4, 6, 55, 0)
s = 73: (0, 25, 3, 8, 7, 8, 15, 15, 7, 5, 52, 0)
s = 74: (0, 48, 3, 14, 7, 6, 21, 8, 5, 8, 26, 0)
s = 75: (0, 46, 4, 7, 9, 5, 13, 9, 7, 4, 37, 0)
s = 76: (0, 39, 2, 14, 8, 5, 14, 8, 4, 7, 42, 0)
s = 77: (0, 27, 4, 9, 6, 9, 18, 12, 5, 6, 44, 0)
s = 78: (0, 35, 3, 9, 12, 9, 19, 9, 7, 5, 49, 0)
s = 79: (0, 55, 5, 12, 6, 9, 11, 9, 7, 6, 35, 0)
s = 80: (0, 31, 3, 11, 8, 5, 19, 11, 4, 7, 47, 0)
s = 81: (0, 29, 5, 7, 9, 6, 16, 6, 6, 4, 45, 0)
s = 82: (0, 32, 4, 11, 12, 5, 21, 6, 7, 8, 50, 0)
s = 83: (0, 34, 3, 12, 7, 7, 21, 8, 3, 8, 46, 0)
s = 84: (0, 36, 3, 11, 11, 4, 16, 14, 7, 6, 37, 0)
s = 85: (0, 30, 4, 8, 9, 5, 13, 12, 6, 6, 32, 0)
s = 86: (0, 30, 4, 12, 11, 6, 18, 9, 6, 5, 60, 0)
s = 87: (0, 26, 4, 11, 7, 9, 16, 6, 5, 10, 37, 0)
s = 88: (0, 21, 2, 12, 6, 8, 19, 11, 5, 6, 48, 0)
s = 89: (0, 24, 4, 6, 7, 8, 15, 13, 6, 6, 51, 0)
s = 90: (0, 28, 4, 10, 7, 8, 16, 13, 6, 7, 81, 0)
s = 91: (0, 29, 4, 11, 7, 6, 15, 8, 8, 5, 41, 0)
s = 92: (0, 30, 3, 9, 12, 7, 15, 10, 5, 4, 39, 0)
s = 93: (0, 46, 4, 5, 10, 7, 26, 9, 8, 12, 61, 0)
s = 94: (0, 31, 2, 11, 8, 8, 23, 10, 6, 4, 44, 0)
s = 95: (0, 25, 5, 8, 10, 5, 20, 7, 8, 7, 39, 0)
s = 96: (0, 55, 3, 12, 11, 6, 11, 13, 5, 5, 42, 0)
s = 97: (0, 49, 3, 9, 9, 9, 15, 13, 5, 9, 63, 0)
s = 98: (0, 47, 3, 17, 8, 6, 13, 8, 7, 10, 76, 0)
s = 99: (0, 45, 3, 10, 10, 5, 18, 7, 3, 4, 46, 0)
s = 100: (0, 20, 3, 10, 8, 6, 18, 8, 5, 6, 33, 0)
s = 101: (0, 39, 3, 12, 9, 5, 22, 8, 8, 4, 49, 0)
s = 102: (0, 51, 4, 12, 7, 5, 9, 7, 5, 4, 42, 0)
s = 103: (0, 31, 4, 7, 11, 6, 22, 9, 6, 7, 31, 0)
s = 104: (0, 49, 5, 10, 7, 6, 19, 8, 3, 8, 55, 0)
s = 105: (0, 35, 4, 11, 8, 4, 19, 6, 5, 4, 82, 0)
s = 106: (0, 29, 2, 14, 15, 6, 17, 9, 8, 8, 43, 0)
s = 107: (0, 38, 5, 10, 10, 5, 25, 7, 4, 8, 40, 0)
s = 108: (0, 22, 3, 12, 7, 7, 10, 7, 4, 7, 48, 0)
s = 109: (0, 27, 3, 13, 9, 5, 19, 11, 6, 8, 67, 0)
s = 110: (0, 36, 5, 6, 6, 5, 16, 11, 5, 6, 28, 0)
s = 111: (0, 55, 3, 12, 7, 7, 19, 6, 5, 9, 63, 0)
s = 112: (0, 23, 2, 6, 6, 8, 13, 6, 3, 7, 62, 0)
s = 113: (0, 36, 3, 6, 9, 5, 17, 8, 7, 5, 58, 0)
s = 114: (0, 40, 3, 6, 9, 7, 15, 14, 4, 9, 33, 0)
s = 115: (0, 33, 3, 10, 10, 10, 11, 9, 5, 6, 64, 0)
s = 116: (0, 24, 3, 5, 11, 5, 10, 7, 4, 8, 77, 0)
s = 117: (0, 32, 3, 9, 8, 5, 14, 7, 6, 6, 73, 0)
s = 118: (0, 46, 4, 7, 15, 4, 22, 8, 6, 6, 47, 0)
s = 119: (0, 46, 4, 11, 7, 5, 25, 7, 6, 8, 35, 0)
s = 120: (0, 33, 3, 12, 7, 8, 24, 7, 3, 4, 57, 0)
s = 121: (0, 40, 2, 7, 7, 4, 14, 13, 8, 8, 36, 0)
s = 122: (0, 33, 3, 10, 11, 9, 16, 9, 6, 8, 26, 0)
s = 123: (0, 53, 3, 12, 9, 6, 15, 11, 5, 5, 53, 0)
s = 124: (0, 41, 5, 7, 11, 5, 22, 6, 5, 6, 47, 0)
s = 125: (0, 50, 2, 7, 7, 6, 15, 11, 5, 8, 37, 0)
s = 126: (0, 39, 2, 8, 11, 5, 22, 9, 5, 8, 43, 0)
s = 127: (0, 31, 5, 9, 8, 4, 24, 10, 7, 5, 53, 0)
s = 128: (0, 70, 4, 8, 6, 9, 18, 7, 5, 6, 26, 0)
s = 129: (0, 35, 3, 7, 13, 6, 26, 14, 7, 5, 63, 0)
s = 130: (0, 22, 4, 10, 8, 4, 17, 9, 7, 5, 42, 0)
s = 131: (0, 24, 3, 11, 15, 9, 19, 14, 4, 6, 52, 0)
s = 132: (0, 35, 4, 9, 6, 5, 20, 8, 5, 5, 35, 0)
s = 133: (0, 48, 4, 7, 6, 7, 11, 13, 6, 4, 39, 0)
s = 134: (0, 35, 3, 15, 6, 6, 20, 7, 5, 4, 67, 0)
s = 135: (0, 27, 3, 6, 7, 7, 14, 10, 7, 6, 41, 0)
s = 136: (0, 30, 2, 6, 7, 4, 12, 8, 5, 5, 88, 0)
s = 137: (0, 36, 4, 14, 14, 6, 15, 9, 7, 7, 36, 0)
s = 138: (0, 54, 3, 8, 10, 4, 11, 6, 7, 11, 44, 0)
s = 139: (0, 34, 3, 10, 12, 8, 14, 10, 8, 4, 69, 0)
s = 140: (0, 52, 3, 9, 9, 8, 12, 12, 3, 5, 32, 0)
s = 141: (0, 34, 3, 8, 11, 4, 20, 7, 7, 5, 59, 0)
s = 142: (0, 23, 5, 9, 9, 6, 10, 8, 5, 4, 50, 0)
s = 143: (0, 47, 5, 7, 9, 10, 15, 7, 4, 7, 51, 0)
s = 144: (0, 34, 5, 10, 9, 5, 18, 13, 9, 4, 34, 0)
s = 145: (0, 33, 4, 9, 7, 6, 20, 8, 6, 6, 80, 0)
s = 146: (0, 26, 4, 16, 9, 8, 15, 7, 7, 7, 33, 0)
s = 147: (0, 44, 4, 12, 11, 5, 13, 11, 4, 6, 59, 0)
s = 148: (0, 57, 3, 6, 9, 5, 19, 7, 5, 7, 76, 0)
s = 149: (0, 36, 3, 7, 10, 5, 13, 9, 8, 6, 50, 0)
s = 150: (0, 50, 5, 16, 13, 5, 17, 8, 7, 6, 39, 0)
s = 151: (0, 30, 2, 11, 9, 6, 10, 9, 4, 8, 50, 0)
s = 152: (0, 29, 3, 13, 13, 9, 19, 7, 8, 8, 43, 0)
s = 153: (0, 43, 3, 11, 7, 8, 13, 12, 4, 5, 29, 0)
s = 154: (0, 59, 4, 8, 7, 7, 12, 7, 6, 8, 45, 0)
s = 155: (0, 40, 4, 7, 7, 8, 15, 10, 6, 8, 57, 0)
s = 156: (0, 22, 4, 9, 12, 9, 17, 6, 5, 8, 27, 0)
s = 157: (0, 32, 3, 9, 9, 8, 16, 8, 9, 4, 45, 0)
s = 158: (0, 39, 3, 7, 10, 7, 17, 6, 5, 11, 37, 0)
s = 159: (0, 43, 3, 8, 7, 10, 20, 11, 4, 6, 51, 0)
s = 160: (0, 26, 2, 8, 10, 9, 12, 8, 6, 6, 39, 0)
s = 161: (0, 40, 2, 14, 12, 8, 18, 8, 5, 5, 42, 0)
s = 162: (0, 38, 2, 8, 12, 5, 23, 6, 5, 6, 37, 0)
s = 163: (0, 26, 5, 6, 9, 9, 14, 9, 4, 11, 34, 0)
s = 164: (0, 39, 3, 8, 16, 5, 14, 11, 6, 5, 55, 0)
s = 165: (0, 52, 5, 9, 7, 4, 22, 10, 6, 9, 51, 0)
s = 166: (0, 40, 4, 7, 10, 6, 15, 9, 8, 8, 40, 0)
s = 167: (0, 45, 5, 8, 6, 5, 20, 12, 5, 6, 68, 0)
s = 168: (0, 47, 3, 7, 11, 6, 14, 11, 5, 9, 51, 0)
s = 169: (0, 32, 3, 9, 9, 8, 19, 12, 5, 7, 48, 0)
s = 170: (0, 23, 3, 13, 5, 7, 16, 8, 4, 8, 47, 0)
s = 171: (0, 38, 5, 10, 9, 5, 20, 7, 6, 7, 69, 0)
s = 172: (0, 51, 2, 14, 11, 7, 21, 15, 7, 6, 41, 0)
s = 173: (0, 45, 2, 9, 10, 9, 20, 11, 3, 4, 68, 0)
s = 174: (0, 33, 3, 9, 9, 6, 14, 9, 4, 8, 39, 0)
s = 175: (0, 66, 3, 7, 7, 6, 18, 8, 6, 7, 36, 0)
s = 176: (0, 39, 3, 15, 7, 6, 15, 10, 7, 6, 43, 0)
s = 177: (0, 21, 3, 14, 7, 6, 9, 7, 4, 5, 43, 0)
s = 178: (0, 41, 2, 8, 8, 7, 9, 10, 7, 7, 26, 0)
s = 179: (0, 30, 3, 9, 8, 6, 21, 9, 7, 8, 33, 0)
s = 180: (0, 42, 3, 7, 7, 7, 17, 8, 6, 6, 59, 0)
s = 181: (0, 57, 4, 9, 7, 7, 13, 11, 7, 7, 39, 0)
s = 182: (0, 28, 2, 17, 9, 6, 13, 11, 6, 4, 42, 0)
s = 183: (0, 23, 2, 11, 6, 6, 16, 8, 6, 4, 33, 0)
s = 184: (0, 26, 5, 10, 12, 7, 14, 12, 4, 4, 46, 0)
s = 185: (0, 57, 3, 8, 8, 7, 14, 9, 6, 5, 40, 0)
s = 186: (0, 52, 3, 13, 9, 4, 16, 12, 3, 7, 59, 0)
s = 187: (0, 38, 4, 12, 11, 5, 12, 8, 4, 4, 75, 0)
s = 188: (0, 35, 4, 10, 9, 6, 19, 7, 5, 8, 34, 0)
s = 189: (0, 48, 5, 14, 6, 4, 18, 15, 4, 4, 62, 0)
s = 190: (0, 41, 3, 10, 9, 6, 21, 12, 7, 6, 64, 0)
s = 191: (0, 54, 4, 11, 8, 5, 13, 11, 7, 5, 53, 0)
s = 192: (0, 49, 3, 14, 9, 6, 15, 10, 4, 6, 45, 0)
s = 193: (0, 36, 3, 7, 8, 6, 11, 6, 8, 5, 53, 0)
s = 194: (0, 24, 5, 11, 9, 8, 22, 6, 5, 5, 58, 0)
s = 195: (0, 24, 3, 10, 13, 5, 24, 10, 5, 6, 44, 0)
s = 196: (0, 23, 3, 11, 11, 4, 19, 8, 6, 6, 48, 0)
s = 197: (0, 28, 3, 18, 11, 6, 13, 8, 5, 6, 31, 0)
s = 198: (0, 45, 3, 12, 16, 5, 11, 7, 5, 9, 43, 0)
s = 199: (0, 27, 5, 6, 8, 5, 24, 6, 6, 6, 38, 0)
s = 200: (0, 36, 4, 9, 9, 6, 14, 10, 9, 5, 38, 0)
------------------------------------------------------------------------
RESOURCE k = 2
s = 1: (0, 25, 14, 8, 10, 18, 23, 8, 7, 17, 103, 0)
s = 2: (0, 32, 13, 9, 12, 20, 13, 9, 10, 17, 89, 0)
s = 3: (0, 28, 11, 13, 15, 19, 17, 6, 15, 14, 56, 0)
s = 4: (0, 23, 6, 8, 11, 22, 23, 8, 6, 12, 97, 0)
s = 5: (0, 19, 9, 8, 10, 25, 13, 12, 8, 15, 52, 0)
s = 6: (0, 13, 9, 13, 10, 23, 23, 7, 12, 12, 93, 0)
s = 7: (0, 15, 7, 8, 11, 28, 21, 6, 9, 9, 58, 0)
s = 8: (0, 30, 6, 9, 14, 14, 23, 11, 12, 14, 82, 0)
s = 9: (0, 23, 9, 7, 11, 25, 26, 6, 12, 16, 65, 0)
s = 10: (0, 25, 7, 7, 18, 20, 17, 6, 11, 19, 109, 0)
s = 11: (0, 18, 10, 6, 8, 18, 14, 10, 9, 11, 50, 0)
s = 12: (0, 21, 8, 6, 9, 20, 32, 10, 11, 12, 66, 0)
s = 13: (0, 15, 7, 6, 8, 19, 18, 12, 8, 14, 56, 0)
s = 14: (0, 30, 10, 9, 10, 16, 18, 8, 8, 11, 40, 0)
s = 15: (0, 21, 12, 7, 13, 11, 35, 6, 14, 10, 34, 0)
s = 16: (0, 15, 16, 8, 9, 17, 33, 7, 8, 8, 78, 0)
s = 17: (0, 29, 7, 9, 14, 13, 21, 9, 8, 11, 50, 0)
s = 18: (0, 20, 9, 7, 9, 15, 13, 11, 7, 12, 68, 0)
s = 19: (0, 29, 6, 8, 13, 21, 21, 9, 9, 11, 93, 0)
s = 20: (0, 25, 11, 10, 16, 18, 13, 10, 10, 8, 78, 0)
s = 21: (0, 19, 12, 12, 9, 20, 22, 7, 5, 9, 58, 0)
s = 22: (0, 21, 11, 13, 12, 16, 22, 8, 6, 18, 66, 0)
s = 23: (0, 15, 7, 8, 13, 30, 26, 5, 9, 9, 47, 0)
s = 24: (0, 15, 10, 10, 15, 21, 16, 10, 7, 14, 68, 0)
s = 25: (0, 26, 10, 9, 10, 16, 24, 8, 7, 14, 45, 0)
s = 26: (0, 22, 13, 9, 10, 17, 21, 8, 10, 10, 80, 0)
s = 27: (0, 28, 11, 11, 10, 13, 15, 8, 8, 14, 44, 0)
s = 28: (0, 15, 11, 8, 12, 22, 18, 7, 9, 16, 73, 0)
s = 29: (0, 32, 14, 9, 7, 23, 23, 5, 12, 13, 58, 0)
s = 30: (0, 20, 15, 10, 10, 27, 15, 11, 8, 12, 50, 0)
s = 31: (0, 20, 9, 8, 10, 14, 19, 7, 5, 12, 110, 0)
s = 32: (0, 18, 17, 8, 9, 23, 22, 8, 6, 17, 47, 0)
s = 33: (0, 27, 11, 7, 7, 22, 22, 10, 12, 14, 67, 0)
s = 34: (0, 11, 9, 10, 7, 19, 16, 8, 10, 12, 77, 0)
s = 35: (0, 16, 11, 15, 6, 16, 27, 9, 6, 21, 53, 0)
s = 36: (0, 23, 13, 10, 11, 28, 17, 9, 9, 10, 77, 0)
s = 37: (0, 15, 9, 9, 13, 13, 19, 9, 12, 12, 39, 0)
s = 38: (0, 21, 7, 12, 9, 19, 22, 8, 8, 10, 102, 0)
s = 39: (0, 17, 7, 6, 6, 20, 15, 5, 13, 10, 84, 0)
s = 40: (0, 14, 12, 9, 10, 20, 17, 13, 10, 10, 69, 0)
s = 41: (0, 12, 10, 13, 15, 20, 15, 6, 8, 7, 41, 0)
s = 42: (0, 22, 8, 11, 7, 16, 17, 9, 6, 15, 66, 0)
s = 43: (0, 15, 10, 6, 15, 22, 27, 7, 9, 10, 82, 0)
s = 44: (0, 15, 12, 12, 10, 13, 20, 10, 8, 20, 34, 0)
s = 45: (0, 21, 12, 12, 9, 19, 15, 10, 10, 19, 68, 0)
s = 46: (0, 19, 8, 7, 10, 16, 23, 6, 6, 8, 47, 0)
s = 47: (0, 15, 8, 6, 13, 22, 13, 10, 11, 12, 42, 0)
s = 48: (0, 23, 5, 11, 8, 18, 17, 6, 12, 19, 51, 0)
s = 49: (0, 22, 9, 7, 12, 14, 23, 10, 8, 12, 75, 0)
s = 50: (0, 15, 11, 10, 9, 16, 30, 13, 9, 14, 65, 0)
s = 51: (0, 19, 9, 7, 12, 22, 23, 8, 9, 15, 77, 0)
s = 52: (0, 16, 10, 11, 14, 11, 12, 10, 12, 15, 63, 0)
s = 53: (0, 26, 8, 12, 9, 29, 17, 9, 5, 11, 94, 0)
s = 54: (0, 17, 9, 10, 8, 17, 13, 13, 6, 16, 74, 0)
s = 55: (0, 33, 8, 13, 8, 12, 30, 6, 9, 10, 81, 0)
s = 56: (0, 19, 9, 10, 10, 12, 28, 7, 11, 8, 36, 0)
s = 57: (0, 27, 10, 9, 10, 18, 19, 13, 8, 12, 56, 0)
s = 58: (0, 14, 8, 13, 13, 14, 11, 10, 8, 16, 104, 0)
s = 59: (0, 14, 12, 13, 13, 14, 22, 7, 12, 13, 57, 0)
s = 60: (0, 24, 11, 9, 10, 17, 19, 7, 8, 10, 68, 0)
s = 61: (0, 28, 9, 7, 9, 21, 14, 7, 9, 10, 49, 0)
s = 62: (0, 30, 7, 6, 7, 15, 25, 10, 6, 10, 73, 0)
s = 63: (0, 19, 9, 7, 9, 27, 13, 13, 6, 13, 99, 0)
s = 64: (0, 30, 14, 7, 10, 11, 20, 11, 12, 18, 63, 0)
s = 65: (0, 23, 12, 8, 11, 29, 21, 6, 8, 10, 40, 0)
s = 66: (0, 13, 6, 9, 9, 29, 13, 5, 8, 12, 44, 0)
s = 67: (0, 18, 8, 11, 10, 16, 21, 8, 7, 19, 84, 0)
s = 68: (0, 29, 6, 9, 15, 30, 17, 6, 8, 17, 64, 0)
s = 69: (0, 25, 11, 9, 6, 22, 24, 10, 6, 12, 48, 0)
s = 70: (0, 33, 18, 5, 7, 16, 18, 7, 5, 10, 76, 0)
s = 71: (0, 27, 7, 7, 8, 20, 20, 9, 5, 15, 52, 0)
s = 72: (0, 14, 11, 9, 14, 24, 21, 7, 6, 12, 73, 0)
s = 73: (0, 14, 7, 8, 8, 22, 19, 13, 11, 10, 69, 0)
s = 74: (0, 27, 8, 14, 8, 17, 26, 7, 8, 15, 35, 0)
s = 75: (0, 26, 12, 7, 10, 14, 16, 8, 11, 7, 49, 0)
s = 76: (0, 22, 6, 14, 9, 15, 17, 7, 7, 13, 56, 0)
s = 77: (0, 15, 11, 9, 6, 27, 23, 11, 7, 11, 59, 0)
s = 78: (0, 19, 7, 9, 13, 26, 23, 8, 11, 9, 65, 0)
s = 79: (0, 31, 13, 12, 7, 26, 14, 8, 10, 12, 46, 0)
s = 80: (0, 18, 8, 11, 9, 13, 23, 10, 6, 13, 63, 0)
s = 81: (0, 16, 14, 7, 10, 16, 20, 5, 9, 7, 60, 0)
s = 82: (0, 18, 10, 11, 13, 15, 26, 5, 10, 15, 67, 0)
s = 83: (0, 19, 8, 12, 8, 19, 26, 7, 5, 16, 61, 0)
s = 84: (0, 20, 9, 11, 12, 12, 20, 12, 11, 11, 49, 0)
s = 85: (0, 17, 11, 8, 10, 15, 16, 10, 9, 11, 43, 0)
s = 86: (0, 17, 10, 12, 12, 18, 22, 8, 9, 9, 80, 0)
s = 87: (0, 15, 12, 11, 8, 26, 20, 5, 7, 20, 49, 0)
s = 88: (0, 12, 6, 12, 7, 22, 23, 10, 8, 11, 64, 0)
s = 89: (0, 14, 11, 6, 8, 22, 19, 12, 9, 12, 68, 0)
s = 90: (0, 16, 12, 10, 8, 24, 20, 12, 9, 13, 107, 0)
s = 91: (0, 16, 12, 11, 8, 18, 19, 7, 12, 9, 54, 0)
s = 92: (0, 17, 8, 9, 13, 19, 19, 9, 8, 8, 51, 0)
s = 93: (0, 26, 10, 5, 11, 20, 32, 8, 13, 23, 81, 0)
s = 94: (0, 17, 5, 11, 8, 24, 29, 9, 10, 8, 59, 0)
s = 95: (0, 14, 14, 8, 11, 14, 25, 6, 12, 14, 51, 0)
s = 96: (0, 31, 7, 12, 12, 16, 13, 11, 8, 10, 56, 0)
s = 97: (0, 28, 7, 9, 10, 27, 18, 12, 7, 18, 84, 0)
s = 98: (0, 27, 7, 17, 9, 18, 16, 7, 11, 19, 101, 0)
s = 99: (0, 25, 9, 10, 11, 13, 22, 6, 5, 8, 61, 0)
s = 100: (0, 11, 9, 10, 9, 16, 22, 8, 8, 11, 44, 0)
s = 101: (0, 22, 9, 12, 10, 15, 27, 7, 12, 7, 65, 0)
s = 102: (0, 28, 10, 12, 8, 14, 11, 6, 7, 8, 55, 0)
s = 103: (0, 18, 12, 7, 12, 17, 28, 8, 9, 14, 42, 0)
s = 104: (0, 27, 13, 10, 8, 17, 24, 7, 5, 16, 74, 0)
s = 105: (0, 20, 10, 11, 9, 12, 24, 5, 8, 7, 109, 0)
s = 106: (0, 16, 6, 14, 17, 17, 21, 8, 13, 15, 57, 0)
s = 107: (0, 21, 14, 10, 11, 15, 31, 6, 6, 15, 53, 0)
s = 108: (0, 12, 9, 12, 8, 21, 12, 6, 7, 13, 64, 0)
s = 109: (0, 15, 8, 13, 10, 15, 23, 9, 9, 16, 89, 0)
s = 110: (0, 20, 14, 6, 6, 14, 20, 10, 8, 11, 37, 0)
s = 111: (0, 31, 7, 12, 8, 19, 24, 6, 8, 17, 83, 0)
s = 112: (0, 13, 6, 6, 7, 24, 16, 5, 5, 14, 82, 0)
s = 113: (0, 20, 9, 6, 10, 14, 21, 7, 11, 9, 77, 0)
s = 114: (0, 23, 7, 6, 10, 21, 18, 12, 5, 18, 44, 0)
s = 115: (0, 19, 7, 10, 11, 29, 13, 8, 7, 11, 85, 0)
s = 116: (0, 14, 9, 5, 12, 15, 13, 7, 6, 16, 102, 0)
s = 117: (0, 18, 8, 9, 9, 14, 18, 6, 9, 11, 98, 0)
s = 118: (0, 26, 12, 7, 17, 11, 27, 7, 9, 12, 63, 0)
s = 119: (0, 26, 10, 11, 8, 15, 31, 6, 9, 16, 46, 0)
s = 120: (0, 19, 7, 12, 8, 24, 30, 6, 5, 8, 76, 0)
s = 121: (0, 22, 6, 7, 8, 12, 17, 11, 13, 16, 47, 0)
s = 122: (0, 19, 7, 10, 12, 26, 19, 8, 9, 16, 35, 0)
s = 123: (0, 30, 8, 12, 10, 18, 18, 10, 8, 9, 71, 0)
s = 124: (0, 23, 14, 7, 12, 13, 27, 6, 8, 11, 62, 0)
s = 125: (0, 28, 6, 7, 8, 16, 18, 9, 8, 15, 49, 0)
s = 126: (0, 22, 6, 8, 12, 15, 28, 8, 8, 16, 57, 0)
s = 127: (0, 17, 13, 9, 9, 12, 30, 9, 11, 10, 71, 0)
s = 128: (0, 39, 11, 8, 6, 25, 23, 6, 8, 11, 34, 0)
s = 129: (0, 20, 9, 7, 14, 18, 32, 13, 11, 10, 83, 0)
s = 130: (0, 12, 10, 10, 9, 11, 21, 8, 11, 9, 56, 0)
s = 131: (0, 14, 7, 11, 17, 27, 24, 12, 7, 11, 70, 0)
s = 132: (0, 19, 12, 9, 7, 13, 25, 7, 7, 10, 47, 0)
s = 133: (0, 27, 12, 7, 7, 21, 13, 11, 9, 8, 52, 0)
s = 134: (0, 19, 8, 15, 7, 17, 25, 6, 7, 8, 90, 0)
s = 135: (0, 15, 8, 6, 8, 19, 18, 9, 11, 12, 55, 0)
s = 136: (0, 17, 5, 6, 8, 12, 15, 7, 8, 10, 117, 0)
s = 137: (0, 20, 12, 14, 15, 16, 19, 8, 12, 14, 47, 0)
s = 138: (0, 30, 8, 8, 11, 12, 14, 5, 10, 21, 58, 0)
s = 139: (0, 19, 7, 10, 13, 23, 17, 9, 12, 8, 91, 0)
s = 140: (0, 29, 8, 9, 10, 22, 14, 11, 5, 9, 43, 0)
s = 141: (0, 19, 7, 8, 12, 11, 25, 6, 11, 10, 78, 0)
s = 142: (0, 13, 14, 9, 10, 18, 12, 7, 8, 7, 66, 0)
s = 143: (0, 26, 14, 7, 9, 28, 19, 6, 6, 14, 67, 0)
s = 144: (0, 19, 14, 10, 10, 15, 23, 12, 14, 8, 45, 0)
s = 145: (0, 19, 11, 9, 8, 16, 24, 7, 9, 11, 106, 0)
s = 146: (0, 15, 11, 16, 10, 22, 18, 7, 12, 14, 44, 0)
s = 147: (0, 24, 12, 12, 12, 14, 16, 10, 7, 11, 78, 0)
s = 148: (0, 32, 9, 6, 10, 15, 24, 7, 7, 14, 101, 0)
s = 149: (0, 20, 9, 7, 11, 14, 16, 8, 12, 11, 66, 0)
s = 150: (0, 28, 14, 16, 14, 14, 21, 7, 10, 11, 51, 0)
s = 151: (0, 17, 6, 11, 10, 18, 12, 8, 6, 15, 67, 0)
s = 152: (0, 17, 7, 13, 14, 27, 23, 6, 12, 15, 58, 0)
s = 153: (0, 24, 9, 11, 8, 22, 16, 11, 6, 10, 39, 0)
s = 154: (0, 33, 12, 8, 8, 20, 15, 7, 9, 15, 60, 0)
s = 155: (0, 23, 12, 7, 8, 22, 18, 9, 9, 15, 76, 0)
s = 156: (0, 13, 10, 9, 13, 27, 21, 6, 8, 16, 36, 0)
s = 157: (0, 18, 7, 9, 10, 23, 20, 7, 14, 8, 60, 0)
s = 158: (0, 22, 7, 7, 11, 19, 21, 5, 7, 21, 50, 0)
s = 159: (0, 24, 8, 8, 8, 29, 25, 10, 5, 11, 68, 0)
s = 160: (0, 15, 6, 8, 11, 26, 14, 7, 9, 11, 52, 0)
s = 161: (0, 22, 6, 14, 13, 22, 22, 7, 7, 9, 56, 0)
s = 162: (0, 21, 6, 8, 14, 15, 29, 5, 8, 11, 49, 0)
s = 163: (0, 15, 13, 6, 10, 25, 18, 8, 6, 21, 45, 0)
s = 164: (0, 22, 8, 8, 18, 13, 18, 10, 9, 10, 73, 0)
s = 165: (0, 29, 13, 9, 8, 12, 27, 9, 9, 17, 68, 0)
s = 166: (0, 22, 11, 7, 11, 17, 19, 8, 12, 16, 53, 0)
s = 167: (0, 25, 15, 8, 6, 15, 25, 11, 8, 12, 91, 0)
s = 168: (0, 26, 7, 7, 12, 18, 18, 10, 7, 18, 68, 0)
s = 169: (0, 18, 8, 9, 10, 23, 24, 11, 8, 14, 64, 0)
s = 170: (0, 13, 9, 13, 6, 20, 19, 7, 6, 15, 63, 0)
s = 171: (0, 21, 14, 10, 10, 13, 25, 7, 9, 13, 92, 0)
s = 172: (0, 29, 6, 14, 12, 19, 26, 13, 11, 12, 55, 0)
s = 173: (0, 25, 6, 9, 11, 27, 25, 10, 5, 8, 91, 0)
s = 174: (0, 19, 7, 9, 9, 16, 17, 8, 6, 16, 52, 0)
s = 175: (0, 37, 8, 7, 8, 16, 22, 7, 10, 14, 48, 0)
s = 176: (0, 22, 9, 15, 8, 17, 19, 9, 11, 12, 57, 0)
s = 177: (0, 12, 7, 14, 8, 18, 11, 6, 6, 9, 57, 0)
s = 178: (0, 23, 6, 8, 9, 20, 11, 9, 12, 13, 35, 0)
s = 179: (0, 17, 9, 9, 9, 17, 26, 8, 11, 15, 44, 0)
s = 180: (0, 24, 8, 7, 8, 21, 21, 7, 9, 11, 78, 0)
s = 181: (0, 32, 11, 9, 8, 19, 16, 10, 10, 14, 51, 0)
s = 182: (0, 16, 6, 17, 10, 18, 16, 10, 9, 8, 56, 0)
s = 183: (0, 13, 6, 11, 7, 16, 20, 7, 10, 8, 44, 0)
s = 184: (0, 15, 13, 10, 14, 20, 18, 11, 6, 8, 61, 0)
s = 185: (0, 32, 9, 8, 9, 19, 17, 8, 9, 9, 54, 0)
s = 186: (0, 29, 9, 13, 10, 11, 20, 11, 5, 13, 79, 0)
s = 187: (0, 21, 11, 12, 12, 15, 15, 7, 5, 8, 99, 0)
s = 188: (0, 20, 10, 10, 10, 18, 24, 7, 8, 16, 45, 0)
s = 189: (0, 27, 13, 14, 7, 11, 22, 13, 6, 7, 82, 0)
s = 190: (0, 23, 9, 10, 10, 17, 27, 11, 12, 11, 85, 0)
s = 191: (0, 30, 11, 11, 9, 14, 17, 10, 10, 10, 70, 0)
s = 192: (0, 27, 7, 14, 10, 17, 19, 9, 5, 11, 60, 0)
s = 193: (0, 20, 9, 7, 9, 18, 14, 6, 13, 9, 70, 0)
s = 194: (0, 14, 13, 11, 10, 22, 28, 5, 8, 10, 77, 0)
s = 195: (0, 13, 9, 10, 14, 13, 30, 9, 7, 11, 59, 0)
s = 196: (0, 13, 7, 11, 13, 12, 24, 7, 10, 12, 63, 0)
s = 197: (0, 16, 7, 18, 12, 16, 16, 7, 8, 12, 41, 0)
s = 198: (0, 25, 7, 12, 18, 13, 14, 6, 8, 18, 57, 0)
s = 199: (0, 15, 13, 6, 9, 13, 30, 5, 9, 11, 50, 0)
s = 200: (0, 20, 12, 9, 10, 16, 18, 9, 14, 9, 51, 0)
------------------------------------------------------------------------
RESOURCE k = 3
s = 1: (0, 44, 3, 16, 6, 30, 14, 7, 8, 15, 90, 0)
s = 2: (0, 56, 3, 18, 7, 32, 8, 8, 11, 14, 78, 0)
s = 3: (0, 49, 3, 26, 9, 32, 10, 6, 17, 12, 49, 0)
s = 4: (0, 42, 2, 16, 7, 36, 14, 7, 7, 10, 85, 0)
s = 5: (0, 34, 2, 16, 6, 42, 8, 10, 9, 12, 46, 0)
s = 6: (0, 24, 2, 26, 6, 38, 14, 6, 13, 10, 81, 0)
s = 7: (0, 27, 2, 15, 7, 46, 13, 5, 10, 8, 51, 0)
s = 8: (0, 54, 2, 18, 8, 22, 14, 10, 14, 12, 72, 0)
s = 9: (0, 41, 2, 14, 7, 41, 16, 5, 13, 13, 57, 0)
s = 10: (0, 44, 2, 13, 11, 34, 10, 5, 12, 16, 96, 0)
s = 11: (0, 33, 3, 11, 5, 30, 8, 9, 11, 9, 44, 0)
s = 12: (0, 37, 2, 11, 5, 32, 19, 9, 13, 10, 58, 0)
s = 13: (0, 26, 2, 11, 5, 32, 11, 11, 9, 12, 49, 0)
s = 14: (0, 53, 3, 17, 6, 26, 11, 7, 9, 9, 35, 0)
s = 15: (0, 38, 3, 13, 8, 19, 21, 5, 16, 8, 30, 0)
s = 16: (0, 26, 4, 15, 5, 29, 20, 7, 9, 7, 68, 0)
s = 17: (0, 52, 2, 17, 9, 22, 13, 8, 9, 9, 44, 0)
s = 18: (0, 35, 2, 14, 6, 25, 8, 10, 8, 10, 60, 0)
s = 19: (0, 52, 2, 16, 8, 35, 13, 8, 10, 9, 82, 0)
s = 20: (0, 44, 3, 19, 10, 30, 8, 9, 11, 7, 68, 0)
s = 21: (0, 33, 3, 24, 6, 34, 13, 6, 6, 7, 51, 0)
s = 22: (0, 38, 3, 26, 7, 27, 13, 7, 6, 15, 57, 0)
s = 23: (0, 27, 2, 15, 8, 49, 16, 4, 10, 8, 41, 0)
s = 24: (0, 27, 3, 20, 9, 34, 10, 9, 8, 12, 60, 0)
s = 25: (0, 46, 3, 17, 6, 26, 15, 7, 8, 11, 39, 0)
s = 26: (0, 39, 3, 18, 6, 27, 13, 7, 11, 8, 70, 0)
s = 27: (0, 50, 3, 21, 6, 21, 9, 7, 9, 12, 38, 0)
s = 28: (0, 26, 3, 15, 7, 36, 11, 6, 10, 14, 64, 0)
s = 29: (0, 57, 4, 17, 4, 38, 14, 4, 14, 11, 51, 0)
s = 30: (0, 36, 4, 20, 6, 45, 9, 10, 9, 10, 44, 0)
s = 31: (0, 35, 2, 16, 6, 23, 12, 7, 6, 10, 96, 0)
s = 32: (0, 33, 4, 15, 6, 38, 13, 7, 7, 14, 41, 0)
s = 33: (0, 49, 3, 14, 4, 36, 13, 9, 14, 12, 58, 0)
s = 34: (0, 20, 2, 19, 5, 31, 10, 7, 11, 10, 67, 0)
s = 35: (0, 28, 3, 29, 4, 27, 17, 8, 7, 17, 47, 0)
s = 36: (0, 40, 3, 20, 7, 46, 10, 8, 10, 8, 67, 0)
s = 37: (0, 27, 2, 18, 8, 22, 12, 8, 13, 10, 34, 0)
s = 38: (0, 37, 2, 24, 6, 31, 13, 7, 9, 8, 89, 0)
s = 39: (0, 29, 2, 12, 4, 32, 9, 5, 14, 8, 73, 0)
s = 40: (0, 25, 3, 18, 6, 33, 10, 12, 11, 8, 60, 0)
s = 41: (0, 21, 3, 26, 9, 33, 9, 5, 9, 6, 36, 0)
s = 42: (0, 40, 2, 22, 5, 26, 11, 8, 7, 13, 58, 0)
s = 43: (0, 27, 3, 12, 9, 36, 16, 6, 10, 8, 71, 0)
s = 44: (0, 26, 3, 23, 6, 21, 12, 9, 9, 17, 29, 0)
s = 45: (0, 38, 3, 23, 6, 32, 9, 9, 11, 16, 59, 0)
s = 46: (0, 33, 2, 14, 6, 27, 14, 5, 7, 7, 41, 0)
s = 47: (0, 26, 2, 12, 8, 36, 8, 9, 12, 10, 37, 0)
s = 48: (0, 42, 2, 22, 5, 29, 11, 5, 14, 16, 45, 0)
s = 49: (0, 40, 2, 13, 8, 24, 14, 9, 9, 10, 66, 0)
s = 50: (0, 26, 3, 20, 6, 27, 18, 11, 10, 12, 57, 0)
s = 51: (0, 34, 2, 14, 8, 37, 14, 7, 10, 12, 67, 0)
s = 52: (0, 29, 3, 22, 9, 18, 7, 9, 14, 12, 55, 0)
s = 53: (0, 46, 2, 23, 5, 48, 10, 8, 6, 9, 82, 0)
s = 54: (0, 29, 2, 19, 5, 28, 8, 11, 7, 13, 64, 0)
s = 55: (0, 59, 2, 26, 5, 20, 18, 5, 10, 9, 71, 0)
s = 56: (0, 35, 2, 19, 6, 20, 17, 6, 12, 7, 32, 0)
s = 57: (0, 48, 3, 17, 6, 30, 12, 11, 9, 10, 49, 0)
s = 58: (0, 26, 2, 26, 8, 23, 7, 9, 9, 14, 91, 0)
s = 59: (0, 25, 3, 25, 8, 23, 13, 6, 14, 11, 50, 0)
s = 60: (0, 43, 3, 17, 6, 28, 12, 7, 9, 9, 60, 0)
s = 61: (0, 50, 2, 14, 6, 35, 8, 6, 10, 9, 43, 0)
s = 62: (0, 54, 2, 12, 5, 25, 15, 9, 6, 8, 64, 0)
s = 63: (0, 34, 2, 14, 6, 45, 8, 11, 6, 11, 87, 0)
s = 64: (0, 54, 4, 13, 6, 18, 12, 10, 13, 15, 55, 0)
s = 65: (0, 41, 3, 16, 7, 48, 13, 5, 9, 9, 35, 0)
s = 66: (0, 23, 2, 18, 6, 47, 8, 5, 9, 10, 38, 0)
s = 67: (0, 33, 2, 22, 6, 27, 13, 7, 8, 16, 74, 0)
s = 68: (0, 52, 2, 17, 9, 50, 11, 5, 9, 15, 56, 0)
s = 69: (0, 44, 3, 18, 4, 36, 15, 9, 7, 10, 42, 0)
s = 70: (0, 60, 4, 10, 4, 26, 11, 7, 5, 9, 67, 0)
s = 71: (0, 48, 2, 14, 5, 33, 12, 8, 6, 12, 46, 0)
s = 72: (0, 25, 3, 18, 9, 39, 13, 6, 6, 10, 64, 0)
s = 73: (0, 25, 2, 16, 5, 36, 12, 12, 12, 8, 61, 0)
s = 74: (0, 48, 2, 27, 5, 28, 16, 6, 9, 13, 30, 0)
s = 75: (0, 46, 3, 13, 6, 22, 10, 7, 13, 6, 43, 0)
s = 76: (0, 39, 2, 27, 6, 25, 10, 7, 7, 11, 49, 0)
s = 77: (0, 27, 3, 17, 4, 44, 14, 10, 8, 9, 51, 0)
s = 78: (0, 35, 2, 18, 8, 44, 14, 7, 12, 8, 57, 0)
s = 79: (0, 55, 3, 23, 4, 43, 8, 7, 11, 10, 40, 0)
s = 80: (0, 31, 2, 21, 5, 21, 14, 9, 7, 11, 55, 0)
s = 81: (0, 29, 4, 13, 6, 26, 12, 4, 10, 6, 53, 0)
s = 82: (0, 32, 3, 21, 8, 25, 16, 5, 12, 12, 59, 0)
s = 83: (0, 34, 2, 24, 5, 32, 16, 6, 6, 14, 53, 0)
s = 84: (0, 36, 2, 21, 7, 20, 12, 11, 12, 10, 43, 0)
s = 85: (0, 30, 3, 15, 6, 24, 10, 9, 11, 9, 37, 0)
s = 86: (0, 30, 3, 24, 7, 30, 13, 7, 10, 8, 70, 0)
s = 87: (0, 26, 3, 21, 5, 42, 12, 4, 8, 17, 43, 0)
s = 88: (0, 21, 2, 24, 4, 36, 14, 9, 9, 9, 56, 0)
s = 89: (0, 24, 3, 12, 5, 37, 11, 10, 10, 10, 59, 0)
s = 90: (0, 28, 3, 19, 5, 40, 12, 10, 10, 11, 94, 0)
s = 91: (0, 29, 3, 22, 5, 29, 12, 6, 14, 7, 47, 0)
s = 92: (0, 30, 2, 17, 8, 32, 12, 8, 9, 7, 45, 0)
s = 93: (0, 46, 3, 10, 7, 33, 20, 7, 15, 19, 71, 0)
s = 94: (0, 31, 2, 21, 5, 40, 17, 8, 11, 7, 52, 0)
s = 95: (0, 25, 4, 15, 7, 22, 15, 5, 14, 11, 45, 0)
s = 96: (0, 55, 2, 23, 7, 26, 8, 10, 8, 8, 49, 0)
s = 97: (0, 49, 2, 18, 6, 45, 11, 10, 8, 15, 73, 0)
s = 98: (0, 47, 2, 33, 6, 29, 10, 6, 12, 16, 88, 0)
s = 99: (0, 45, 2, 20, 7, 22, 13, 5, 5, 7, 53, 0)
s = 100: (0, 20, 2, 20, 6, 27, 13, 7, 9, 9, 38, 0)
s = 101: (0, 39, 2, 23, 6, 25, 16, 6, 14, 6, 57, 0)
s = 102: (0, 51, 3, 23, 5, 22, 7, 5, 8, 7, 48, 0)
s = 103: (0, 31, 3, 13, 8, 28, 17, 7, 10, 12, 37, 0)
s = 104: (0, 49, 3, 19, 5, 28, 14, 7, 5, 13, 64, 0)
s = 105: (0, 35, 3, 21, 6, 19, 14, 5, 9, 6, 96, 0)
s = 106: (0, 29, 2, 27, 10, 29, 13, 7, 14, 12, 50, 0)
s = 107: (0, 38, 4, 20, 7, 24, 19, 5, 6, 13, 46, 0)
s = 108: (0, 22, 2, 23, 5, 34, 7, 5, 8, 11, 56, 0)
s = 109: (0, 27, 2, 26, 6, 24, 14, 8, 10, 13, 78, 0)
s = 110: (0, 36, 3, 11, 4, 23, 12, 9, 9, 9, 33, 0)
s = 111: (0, 55, 2, 23, 5, 31, 14, 5, 9, 14, 73, 0)
s = 112: (0, 23, 2, 12, 4, 39, 10, 5, 6, 11, 72, 0)
s = 113: (0, 36, 2, 11, 6, 23, 13, 6, 12, 8, 67, 0)
s = 114: (0, 40, 2, 12, 6, 35, 11, 11, 6, 15, 39, 0)
s = 115: (0, 33, 2, 20, 7, 49, 8, 7, 8, 9, 75, 0)
s = 116: (0, 24, 2, 10, 7, 25, 8, 6, 6, 13, 89, 0)
s = 117: (0, 32, 2, 18, 5, 23, 11, 5, 10, 9, 86, 0)
s = 118: (0, 46, 3, 14, 10, 19, 16, 6, 10, 10, 55, 0)
s = 119: (0, 46, 3, 21, 5, 25, 19, 5, 11, 14, 40, 0)
s = 120: (0, 33, 2, 23, 5, 40, 18, 6, 5, 7, 67, 0)
s = 121: (0, 40, 2, 13, 5, 19, 10, 10, 14, 13, 42, 0)
s = 122: (0, 33, 2, 20, 8, 43, 12, 7, 10, 14, 30, 0)
s = 123: (0, 53, 2, 23, 6, 30, 11, 9, 9, 8, 62, 0)
s = 124: (0, 41, 4, 13, 8, 21, 17, 5, 9, 9, 54, 0)
s = 125: (0, 50, 2, 14, 5, 27, 11, 8, 9, 12, 43, 0)
s = 126: (0, 39, 2, 15, 8, 24, 17, 7, 9, 13, 50, 0)
s = 127: (0, 31, 3, 18, 5, 20, 18, 8, 12, 9, 62, 0)
s = 128: (0, 70, 3, 15, 4, 42, 14, 6, 9, 9, 30, 0)
s = 129: (0, 35, 2, 14, 9, 30, 20, 11, 12, 8, 73, 0)
s = 130: (0, 22, 3, 20, 6, 18, 13, 7, 12, 7, 49, 0)
s = 131: (0, 24, 2, 21, 10, 44, 15, 11, 8, 9, 61, 0)
s = 132: (0, 35, 3, 18, 4, 22, 15, 7, 8, 9, 41, 0)
s = 133: (0, 48, 3, 14, 4, 34, 8, 10, 10, 7, 46, 0)
s = 134: (0, 35, 2, 30, 4, 27, 15, 5, 8, 7, 79, 0)
s = 135: (0, 27, 2, 12, 5, 31, 11, 8, 12, 10, 48, 0)
s = 136: (0, 30, 2, 12, 5, 20, 9, 6, 9, 8, 103, 0)
s = 137: (0, 36, 3, 27, 9, 26, 12, 7, 13, 12, 41, 0)
s = 138: (0, 54, 2, 15, 7, 20, 8, 5, 11, 18, 51, 0)
s = 139: (0, 34, 2, 20, 8, 37, 11, 8, 14, 7, 80, 0)
s = 140: (0, 52, 2, 18, 6, 36, 9, 9, 5, 8, 38, 0)
s = 141: (0, 34, 2, 16, 7, 19, 15, 6, 12, 9, 68, 0)
s = 142: (0, 23, 3, 18, 6, 29, 7, 6, 9, 6, 58, 0)
s = 143: (0, 47, 3, 13, 6, 46, 12, 5, 6, 11, 59, 0)
s = 144: (0, 34, 4, 20, 6, 25, 14, 11, 15, 6, 39, 0)
s = 145: (0, 33, 3, 18, 5, 27, 15, 6, 10, 9, 93, 0)
s = 146: (0, 26, 3, 31, 6, 37, 11, 6, 13, 12, 39, 0)
s = 147: (0, 44, 3, 23, 8, 24, 10, 9, 7, 9, 68, 0)
s = 148: (0, 57, 2, 11, 6, 24, 15, 6, 8, 11, 89, 0)
s = 149: (0, 36, 2, 13, 7, 22, 10, 7, 13, 9, 58, 0)
s = 150: (0, 50, 4, 31, 9, 22, 13, 6, 11, 9, 45, 0)
s = 151: (0, 30, 2, 21, 6, 29, 8, 7, 7, 12, 58, 0)
s = 152: (0, 29, 2, 25, 9, 44, 14, 5, 14, 13, 51, 0)
s = 153: (0, 43, 2, 21, 5, 36, 10, 9, 7, 9, 34, 0)
s = 154: (0, 59, 3, 15, 5, 34, 9, 6, 10, 12, 52, 0)
s = 155: (0, 40, 3, 13, 5, 37, 11, 8, 10, 13, 66, 0)
s = 156: (0, 22, 3, 18, 8, 45, 13, 5, 9, 14, 32, 0)
s = 157: (0, 32, 2, 17, 6, 38, 12, 6, 15, 7, 53, 0)
s = 158: (0, 39, 2, 14, 7, 32, 13, 5, 8, 18, 44, 0)
s = 159: (0, 43, 2, 15, 5, 48, 15, 9, 6, 9, 59, 0)
s = 160: (0, 26, 2, 16, 7, 43, 9, 7, 10, 9, 46, 0)
s = 161: (0, 40, 2, 27, 8, 36, 13, 6, 8, 7, 49, 0)
s = 162: (0, 38, 2, 15, 8, 25, 18, 5, 8, 9, 43, 0)
s = 163: (0, 26, 3, 11, 6, 42, 11, 7, 6, 17, 39, 0)
s = 164: (0, 39, 2, 15, 11, 21, 11, 9, 10, 9, 64, 0)
s = 165: (0, 52, 3, 17, 5, 20, 16, 8, 10, 14, 59, 0)
s = 166: (0, 40, 3, 14, 7, 27, 12, 7, 14, 13, 46, 0)
s = 167: (0, 45, 4, 16, 4, 25, 15, 10, 9, 10, 79, 0)
s = 168: (0, 47, 2, 13, 7, 29, 11, 9, 8, 15, 59, 0)
s = 169: (0, 32, 2, 18, 6, 38, 14, 10, 9, 12, 56, 0)
s = 170: (0, 23, 2, 26, 4, 32, 12, 6, 7, 12, 55, 0)
s = 171: (0, 38, 3, 20, 6, 22, 15, 6, 10, 11, 81, 0)
s = 172: (0, 51, 2, 28, 8, 31, 16, 12, 13, 10, 48, 0)
s = 173: (0, 45, 2, 18, 7, 44, 15, 9, 5, 6, 80, 0)
s = 174: (0, 33, 2, 18, 6, 26, 10, 7, 7, 13, 45, 0)
s = 175: (0, 66, 2, 13, 5, 26, 13, 6, 11, 12, 42, 0)
s = 176: (0, 39, 2, 29, 5, 29, 12, 8, 12, 10, 50, 0)
s = 177: (0, 21, 2, 27, 5, 30, 7, 5, 7, 8, 50, 0)
s = 178: (0, 41, 2, 16, 5, 33, 7, 8, 13, 11, 30, 0)
s = 179: (0, 30, 2, 17, 6, 28, 16, 7, 13, 12, 39, 0)
s = 180: (0, 42, 2, 13, 5, 34, 13, 6, 10, 9, 68, 0)
s = 181: (0, 57, 3, 17, 5, 32, 10, 8, 12, 12, 45, 0)
s = 182: (0, 28, 2, 33, 6, 30, 10, 9, 10, 6, 49, 0)
s = 183: (0, 23, 2, 21, 4, 27, 12, 6, 11, 7, 38, 0)
s = 184: (0, 26, 3, 19, 8, 33, 11, 9, 6, 7, 54, 0)
s = 185: (0, 57, 2, 16, 6, 31, 11, 7, 10, 8, 47, 0)
s = 186: (0, 52, 2, 26, 6, 19, 12, 10, 6, 11, 69, 0)
s = 187: (0, 38, 3, 23, 7, 25, 9, 6, 6, 6, 87, 0)
s = 188: (0, 35, 3, 20, 6, 30, 15, 6, 9, 13, 39, 0)
s = 189: (0, 48, 3, 27, 4, 18, 13, 12, 7, 6, 72, 0)
s = 190: (0, 41, 2, 19, 6, 28, 16, 10, 13, 9, 74, 0)
s = 191: (0, 54, 3, 22, 6, 24, 10, 9, 11, 9, 62, 0)
s = 192: (0, 49, 2, 27, 6, 28, 12, 8, 6, 9, 52, 0)
s = 193: (0, 36, 2, 14, 5, 29, 9, 5, 15, 7, 62, 0)
s = 194: (0, 24, 3, 21, 6, 36, 17, 5, 9, 8, 67, 0)
s = 195: (0, 24, 2, 20, 9, 22, 18, 8, 8, 9, 52, 0)
s = 196: (0, 23, 2, 21, 8, 19, 14, 6, 11, 10, 55, 0)
s = 197: (0, 28, 2, 35, 7, 27, 10, 6, 9, 10, 36, 0)
s = 198: (0, 45, 2, 23, 11, 22, 8, 6, 9, 15, 50, 0)
s = 199: (0, 27, 3, 12, 6, 22, 18, 5, 10, 9, 44, 0)
s = 200: (0, 36, 3, 18, 6, 26, 11, 8, 16, 8, 44, 0)
************************************************************************
ES/LS-VALUES:
jobnr.   ES(i)    LS(i)
------------------------------------------------------------------------
  0        0        0
  1        0       73
  2        0       54
  3        0       55
  4        2       66
  5        2       56
  6        7       61
  7        6       77
  8       14       81
  9       14       79
 10       14       68
 11       28       83
************************************************************************
BIG-M-VALUES:
M1 = 86, M2 = 308
************************************************************************
